src/LKH/IO/o-7_t.tsp
NAME: o-7_t
TYPE: TSP
DIMENSION: 7
EDGE_WEIGHT_TYPE: EXPLICIT
EDGE_WEIGHT_FORMAT: FULL_MATRIX
EDGE_WEIGHT_SECTION
0 -2 -10 -10 -14 -16 -6
-2 0 -8 -2 -10 -14 -16
-10 -8 0 -2 -12 -8 -20
-10 -2 -2 0 -2 -6 -16
-14 -10 -12 -2 0 -14 -14
-16 -14 -8 -6 -14 0 -12
-6 -16 -20 -16 -14 -12 0
EOF