src/LKH/IO/o-7_t.tour
NAME : o-7_t.-98.tour
COMMENT : Length = -98
COMMENT : Found by LKH [Keld Helsgaun] Sun Apr 13 17:05:00 2025
TYPE : TOUR
DIMENSION : 7
TOUR_SECTION
1
4
7
3
5
2
6
-1
EOF
